1279758
94,31,50,83,58,1,80,45,93,106,15,28,51,100,97,34,4,0,81,44,33,24,82,2,62,19,43,78,66,3,91,73,14,22,23,89,108,63,21,101,53,57,103,96,88,90,10,48,9,65,76,8,36,25,40,37,71,56,74,85,26,68,69,13,38,30,46,70,98,61,18,72,75,49,17,6,87,64,59,41,107,32,77,105,54,11,35,27,7,39,67,12,92,95,86,104,99,52,16,79,20,47,55,102,29,5,60,84,42
